networks/zoo_16_23/zoo_16_23-lower.txt
Number of groups: 8
Flow 5: {2 3 0} {3 4 0} {4 5 0} 
Flow 8: {4 12 0} 
Flow 10: {3 6 0} {6 14 0} 
Flow 11: {6 1 0} {1 8 0} {8 16 0} 
Flow 12: {5 1 0} {1 9 0} 
Flow 13: {5 4 0} {4 3 0} {3 11 0} 
Flow 20: {7 1 0} {1 6 0} {6 3 0} 
Flow 23: {8 1 0} {1 5 0} {5 13 0} 
Time taken running everything: 0 seconds
