networks/zoo_16_23/zoo_16_23-lower.sol
<?xml version = "1.0" encoding="UTF-8" standalone="yes"?>
<CPLEXSolution version="1.2">
 <header
   problemName="networks/zoo_16_23/zoo_16_23-lower.lp"
   solutionName="incumbent"
   solutionIndex="-1"
   objectiveValue="6"
   solutionTypeValue="3"
   solutionTypeString="primal"
   solutionStatusValue="101"
   solutionStatusString="integer optimal solution"
   solutionMethodString="mip"
   primalFeasible="1"
   dualFeasible="1"
   MIPNodes="0"
   MIPIterations="0"
   writeLevel="3"/>
 <quality
   epInt="1.0000000000000001e-05"
   epRHS="9.9999999999999995e-07"
   maxIntInfeas="0"
   maxPrimalInfeas="0"
   maxX="1"
   maxSlack="1"/>
 <variables>
  <variable name="Y(1,3)" index="2" value="1"/>
  <variable name="Y(2,5)" index="18" value="1"/>
  <variable name="Y(3,1)" index="28" value="1"/>
  <variable name="Y(6,6)" index="75" value="1"/>
  <variable name="Y(8,4)" index="101" value="1"/>
  <variable name="Y(11,8)" index="147" value="1"/>
  <variable name="X(1,5,2)" index="323" value="1"/>
  <variable name="X(1,6,1)" index="345" value="1"/>
  <variable name="X(1,8,11)" index="378" value="1"/>
  <variable name="X(1,9,3)" index="393" value="1"/>
  <variable name="X(2,3,3)" index="416" value="1"/>
  <variable name="X(3,4,5)" index="441" value="1"/>
  <variable name="X(3,6,3)" index="462" value="1"/>
  <variable name="X(3,11,1)" index="483" value="1"/>
  <variable name="X(4,3,13)" index="518" value="1"/>
  <variable name="X(4,5,5)" index="533" value="1"/>
  <variable name="X(4,12,8)" index="559" value="1"/>
  <variable name="X(5,1,12)" index="586" value="1"/>
  <variable name="X(5,4,13)" index="610" value="1"/>
  <variable name="X(5,13,2)" index="622" value="1"/>
  <variable name="X(6,1,3)" index="646" value="1"/>
  <variable name="X(6,3,1)" index="667" value="1"/>
  <variable name="X(6,14,6)" index="695" value="1"/>
  <variable name="X(7,1,19)" index="731" value="1"/>
  <variable name="X(8,1,21)" index="756" value="1"/>
  <variable name="X(8,16,11)" index="769" value="1"/>
 </variables>
</CPLEXSolution>
